50
76 20
11 100
43 87
25 39
68 28
86 93
74 48
32 60
38 69
92 12
29 25
88 42
70 12
89 53
22 17
14 32
67 29
20 80
91 72
58 29
68 42
46 87
18 71
34 62
66 100
95 41
47 83
48 19
71 20
25 92
98 21
2 44
35 93
49 19
57 44
39 43
12 5
25 28
95 31
79 5
6 46
42 30
58 69
57 62
45 75
81 66
41 14
67 22
81 82
45 91